50
22991

741 557
922 287
909 779
814 895
761 198
842 874
590 339
239 17
485 262
159 525
983 788
626 127
431 530
762 601
448 324
177 402
463 838
421 408
250 579
71 72
802 524
33 48
251 942
183 79
811 789
273 767
888 314
4 130
460 84
162 372
564 292
865 742
981 469
601 89
263 834
987 452
49 635
217 196
312 562
301 70
914 564
839 760
885 578
41 462
91 939
709 490
809 205
150 665
417 413
335 746
